11
 energy: -22.618686925415 gnorm: 0.000101327367 xtb: 6.6.1 (8d0f1dd)
Pt           0.00141145448954        0.89710910904237       -0.00074477420391
Cl           2.30365076517915        0.90854905676832        0.00103132247297
Cl          -2.30139787575399        0.91925247033909       -0.00194740251426
N           -0.00122864941672        0.90225541798664        2.04554718828831
H            0.02034744575825       -0.06012069743655        2.38938528566651
H            0.82773772759935        1.39394477324739        2.38659497998143
N            0.00338672531346        0.89618933513676       -2.04700262402075
H           -0.84026790158539        1.36236994402004       -2.38805545923287
H            0.84110130332527        1.37382441094038       -2.38679767007049
H           -0.85319864772006        1.35621718416277        2.38251728884044
H            0.01054797270853       -0.06747461050843       -2.38787122520736
