11
 energy: -22.618686798407 gnorm: 0.000144591531 xtb: 6.6.1 (8d0f1dd)
Pt          -0.00059168567134       -0.89379848078695        0.00144002459747
Cl           2.30238178190758       -0.90145527710620        0.00272808667475
Cl          -2.30347340869165       -0.91855957929216       -0.00015680398069
N           -0.00124103206265       -0.89240308627583        2.04767804920123
H           -0.00810357784818        0.07117196820470        2.38865741464716
H           -0.83848156709389       -1.37030222789801        2.38824078113817
N           -0.00111740276173       -0.89900050047012       -2.04481710252545
H            0.01103082593321        0.06340555532353       -2.38893993567980
H            0.83324657418938       -1.38243953951006       -2.38453742996935
H           -0.84798368821500       -1.36156535714445       -2.38291420831998
H            0.84285239011560       -1.35834557494471        2.38798038081561
