21
 energy: -39.530635215598 gnorm: 0.000070700685 xtb: 6.6.1 (8d0f1dd)
B           -0.00005088639217       -1.16300772224041       -0.00000529117763
N            1.24621931292341       -0.24091278538695       -0.00144923731926
C            2.51739653780790       -0.61917520739301       -0.00323880343981
C            3.35659495429048        0.50457520390683       -0.00279452801222
C            2.54021833547295        1.61197328180487       -0.00048213564571
C            1.20530277858765        1.13825601279041        0.00021537415302
C           -0.00003236911434        1.82102560960723        0.00132640671667
C           -1.20537516882707        1.13826881640878        0.00064506815392
N           -1.24631337006301       -0.24090156917255       -0.00055416598564
C           -2.51749439759327       -0.61914890613363       -0.00146441230902
C           -3.35668034016635        0.50461248163854       -0.00097871429860
C           -2.54028839513107        1.61200067793028        0.00050210358201
F            0.00036220797879       -1.94813521684680        1.13052114567839
F           -0.00047524050006       -1.95096728880624       -1.12847466745856
H            2.78188867867509       -1.65933121085485       -0.00483547277800
H            4.42829820657757        0.48344545106547       -0.00405645203619
H            2.83065368637875        2.64420738012701        0.00049496699353
H           -0.00002530152522        2.90063750659895        0.00252264986190
H           -2.78200063776551       -1.65930244704014       -0.00246103485435
H           -4.42838424232883        0.48349262111781       -0.00163742050550
H           -2.83070852948570        2.64423892277841        0.00120182138102
